152 5
10 10 10 10 10 

0 0 0 0 0 0 1 2 
0 0 0 0 0 0 2 3 4 
7 0 1 0 0 0 2 6 5 
4 0 1 0 0 0 2 6 5 
10 0 4 0 0 0 2 8 7 
9 0 2 0 0 0 2 8 7 
1 0 6 0 0 0 2 12 9 
7 0 2 0 0 0 2 12 9 
7 0 3 0 0 0 2 11 10 
3 0 1 0 0 0 1 13 
9 0 3 0 0 0 1 13 
1 0 2 0 0 0 1 13 
0 0 0 0 0 0 1 14 
0 0 0 0 0 0 3 15 16 18 
1 0 0 0 1 0 2 24 17 
5 0 0 0 1 0 2 21 17 
2 0 0 0 3 0 2 20 19 
3 0 0 0 2 0 1 21 
8 0 0 0 5 0 1 22 
3 0 0 0 1 0 1 22 
4 0 0 0 3 0 1 22 
3 0 0 0 3 0 1 23 
10 0 0 0 3 0 1 25 
8 0 0 0 3 0 1 25 
0 0 0 0 0 0 1 26 
0 0 0 0 0 0 4 27 28 30 32 
2 0 0 1 0 0 2 36 29 
10 0 0 2 0 0 2 36 31 
7 0 0 2 0 0 1 31 
3 0 0 4 0 0 2 36 35 
5 0 0 4 0 0 1 33 
2 0 0 1 0 0 1 34 
8 0 0 3 0 0 1 35 
1 0 0 1 0 0 1 36 
1 0 0 3 0 0 1 37 
6 0 0 4 0 0 1 37 
0 0 0 0 0 0 4 38 60 82 94 
0 0 0 0 0 0 9 39 44 52 53 54 55 56 57 58 
10 0 0 0 1 1 2 51 40 
10 0 0 0 3 2 2 50 41 
6 0 0 0 1 1 1 42 
5 0 0 0 1 3 1 43 
10 0 0 0 4 2 1 45 
4 0 0 0 2 2 1 45 
3 0 0 0 1 4 1 46 
9 0 0 0 2 5 1 47 
8 0 0 0 3 3 1 48 
5 0 0 0 4 2 1 49 
1 0 0 0 5 2 1 59 
8 0 0 0 3 1 1 59 
5 0 0 0 2 6 1 59 
10 0 0 0 2 3 1 59 
1 0 0 0 1 1 1 59 
4 0 0 0 4 3 2 59 122 
10 0 0 0 5 4 1 59 
8 0 0 0 3 2 1 59 
5 0 0 0 2 2 1 59 
4 0 0 0 1 1 1 59 
0 0 0 0 0 0 1 152 
0 0 0 0 0 0 2 61 63 
6 1 0 1 0 0 2 65 62 
8 3 0 2 0 0 1 64 
4 2 0 4 0 0 1 64 
5 2 0 2 0 0 1 66 
10 1 0 3 0 0 2 66 133 
2 2 0 3 0 0 3 73 68 67 
8 4 0 2 0 0 3 72 71 70 
8 3 0 2 0 0 3 72 71 69 
5 1 0 2 0 0 2 77 74 
6 3 0 2 0 0 2 77 74 
2 2 0 2 0 0 1 74 
8 2 0 1 0 0 1 74 
7 3 0 1 0 0 1 74 
4 4 0 2 0 0 2 80 75 
5 5 0 4 0 0 2 79 76 
9 2 0 5 0 0 1 78 
3 2 0 3 0 0 1 78 
10 3 0 2 0 0 1 81 
2 2 0 2 0 0 1 81 
9 3 0 5 0 0 1 81 
0 0 0 0 0 0 1 152 
0 0 0 0 0 0 3 83 87 92 
1 0 0 0 1 0 2 91 84 
5 0 0 0 2 0 2 85 146 
3 0 0 0 4 0 1 86 
2 0 0 0 4 0 2 89 88 
6 0 0 0 3 0 2 90 88 
7 0 0 0 2 0 1 93 
10 0 0 0 2 0 1 93 
5 0 0 0 2 0 1 93 
2 0 0 0 4 0 1 93 
5 0 0 0 1 0 1 93 
0 0 0 0 0 0 3 116 128 140 
0 0 0 0 0 0 3 95 97 101 
8 1 0 0 0 1 1 96 
7 3 0 0 0 3 3 109 104 98 
1 4 0 0 0 1 3 109 104 98 
4 2 0 0 0 4 4 114 113 108 99 
1 3 0 0 0 3 2 107 100 
9 2 0 0 0 2 2 112 102 
3 2 0 0 0 3 2 111 105 
2 3 0 0 0 3 1 103 
7 1 0 0 0 2 1 105 
2 4 0 0 0 2 2 113 111 
1 1 0 0 0 3 1 106 
7 2 0 0 0 2 1 110 
1 4 0 0 0 4 1 111 
2 5 0 0 0 2 1 112 
4 2 0 0 0 3 1 113 
4 1 0 0 0 2 1 115 
10 2 0 0 0 1 1 115 
8 2 0 0 0 1 1 115 
9 3 0 0 0 4 1 115 
10 3 0 0 0 4 1 115 
0 0 0 0 0 0 1 152 
0 0 0 0 0 0 2 117 118 
4 0 1 0 0 0 3 123 121 119 
7 0 2 0 0 0 3 125 123 120 
1 0 1 0 0 0 2 125 120 
2 0 2 0 0 0 2 126 122 
4 0 4 0 0 0 2 125 122 
6 0 6 0 0 0 1 124 
10 0 1 0 0 0 1 124 
6 0 1 0 0 0 1 127 
10 0 3 0 0 0 1 127 
6 0 4 0 0 0 1 127 
0 0 0 0 0 0 1 152 
0 0 0 0 0 0 2 129 130 
2 0 0 0 0 1 1 131 
10 0 0 0 0 2 1 131 
3 0 0 0 0 6 2 134 132 
5 0 0 0 0 1 3 138 137 133 
6 0 0 0 0 3 2 136 135 
3 0 0 0 0 4 2 136 135 
5 0 0 0 0 2 1 139 
9 0 0 0 0 2 1 139 
2 0 0 0 0 2 1 139 
6 0 0 0 0 2 1 139 
0 0 0 0 0 0 1 152 
0 0 0 0 0 0 3 141 143 144 
7 0 1 0 0 0 2 146 142 
3 0 2 0 0 0 2 148 145 
6 0 3 0 0 0 2 148 145 
8 0 3 0 0 0 1 145 
1 0 1 0 0 0 2 149 147 
9 0 2 0 0 0 2 150 149 
4 0 3 0 0 0 1 150 
1 0 3 0 0 0 1 149 
9 0 4 0 0 0 1 151 
10 0 3 0 0 0 1 151 
0 0 0 0 0 0 1 152 
0 0 0 0 0 0 0 
